% Logging successfully configured
%%%mzn-stat: initTime=0.004548056
%%%mzn-stat: objective=824
%%%mzn-stat: nodes=314
%%%mzn-stat: restarts=0
%%%mzn-stat: peakDepth=137
%%%mzn-stat: solveTime=0.009960765
%%%mzn-stat: variables=302
%%%mzn-stat: propagators=390
%%%mzn-stat: failures=168
%%%mzn-stat: propagations=20683
%%%mzn-stat: nogoods=168
%%%mzn-stat: numAtomicConstraintsPropagated=0
%%%mzn-stat: circuitNumber191PropagationsThatFoundConflict=72
%%%mzn-stat: circuitNumber191TotalFixedEdgesAtConflict=1296
%%%mzn-stat: circuitNumber191NumberOfConflicts=72
%%%mzn-stat: circuitNumber191PropagationsThatPruned=58
%%%mzn-stat: circuitNumber191PropagationsTotal=284
%%%mzn-stat: AverageConflictSize=7.625
%%%mzn-stat: NumUnitNogoodsLearned=0
%%%mzn-stat: AverageLearnedNogoodLength=11.636904761904763
%%%mzn-stat: AverageBacktrackAmount=0
%%%mzn-stat: AverageLbd=9.55952380952381
%%%mzn-stat: 2AutonomousSearchNumBackupCalled=126
%%%mzn-stat: 2AutonomousSearchNumPredicatesRemoved=0
%%%mzn-stat: 2AutonomousSearchNumCalls=127
%%%mzn-stat: 2AutonomousSearchNumPredicatesAdded=330
%%%mzn-stat: 2AutonomousSearchAverageSizeOfHeap=2.5984251968503935
%%%mzn-stat: 2AutonomousSearchNumAssignedPredicatesEncountered=330
%%%mzn-stat-end
maxleg = 824;
succ = array1d(1..20,[2, 4, 1, 5, 9, 7, 3, 20, 19, 6, 15, 8, 12, 16, 18, 13, 11, 14, 17, 10]);
% time elapsed: 16.37 s
----------
%%%mzn-stat: initTime=0.004548056
%%%mzn-stat: objective=658
%%%mzn-stat: nodes=489
%%%mzn-stat: restarts=0
%%%mzn-stat: peakDepth=137
%%%mzn-stat: solveTime=0.011789738
%%%mzn-stat: variables=302
%%%mzn-stat: propagators=390
%%%mzn-stat: failures=196
%%%mzn-stat: propagations=24183
%%%mzn-stat: nogoods=196
%%%mzn-stat: numAtomicConstraintsPropagated=0
%%%mzn-stat: circuitNumber191PropagationsThatFoundConflict=84
%%%mzn-stat: circuitNumber191TotalFixedEdgesAtConflict=1503
%%%mzn-stat: circuitNumber191NumberOfConflicts=84
%%%mzn-stat: circuitNumber191PropagationsThatPruned=62
%%%mzn-stat: circuitNumber191PropagationsTotal=348
%%%mzn-stat: AverageConflictSize=8.566326530612244
%%%mzn-stat: NumUnitNogoodsLearned=0
%%%mzn-stat: AverageLearnedNogoodLength=12.127551020408163
%%%mzn-stat: AverageBacktrackAmount=0
%%%mzn-stat: AverageLbd=9.698979591836734
%%%mzn-stat: 2AutonomousSearchNumBackupCalled=243
%%%mzn-stat: 2AutonomousSearchNumPredicatesRemoved=0
%%%mzn-stat: 2AutonomousSearchNumCalls=245
%%%mzn-stat: 2AutonomousSearchNumPredicatesAdded=554
%%%mzn-stat: 2AutonomousSearchAverageSizeOfHeap=3.0326530612244897
%%%mzn-stat: 2AutonomousSearchNumAssignedPredicatesEncountered=743
%%%mzn-stat-end
maxleg = 658;
succ = array1d(1..20,[2, 6, 1, 5, 9, 7, 10, 12, 18, 20, 4, 3, 8, 16, 17, 13, 19, 14, 11, 15]);
% time elapsed: 16.37 s
----------
%%%mzn-stat: initTime=0.004548056
%%%mzn-stat: objective=626
%%%mzn-stat: nodes=621
%%%mzn-stat: restarts=0
%%%mzn-stat: peakDepth=137
%%%mzn-stat: solveTime=0.012105876
%%%mzn-stat: variables=302
%%%mzn-stat: propagators=390
%%%mzn-stat: failures=197
%%%mzn-stat: propagations=25035
%%%mzn-stat: nogoods=197
%%%mzn-stat: numAtomicConstraintsPropagated=0
%%%mzn-stat: circuitNumber191PropagationsThatFoundConflict=85
%%%mzn-stat: circuitNumber191TotalFixedEdgesAtConflict=1520
%%%mzn-stat: circuitNumber191NumberOfConflicts=85
%%%mzn-stat: circuitNumber191PropagationsThatPruned=63
%%%mzn-stat: circuitNumber191PropagationsTotal=364
%%%mzn-stat: AverageConflictSize=8.532994923857869
%%%mzn-stat: NumUnitNogoodsLearned=0
%%%mzn-stat: AverageLearnedNogoodLength=12.16751269035533
%%%mzn-stat: AverageBacktrackAmount=0
%%%mzn-stat: AverageLbd=9.690355329949238
%%%mzn-stat: 2AutonomousSearchNumBackupCalled=359
%%%mzn-stat: 2AutonomousSearchNumPredicatesRemoved=0
%%%mzn-stat: 2AutonomousSearchNumCalls=362
%%%mzn-stat: 2AutonomousSearchNumPredicatesAdded=636
%%%mzn-stat: 2AutonomousSearchAverageSizeOfHeap=3.1988950276243093
%%%mzn-stat: 2AutonomousSearchNumAssignedPredicatesEncountered=1158
%%%mzn-stat-end
maxleg = 626;
succ = array1d(1..20,[2, 6, 1, 5, 9, 7, 10, 12, 18, 20, 4, 13, 3, 8, 17, 14, 19, 16, 11, 15]);
% time elapsed: 16.37 s
----------
%%%mzn-stat: initTime=0.004548056
%%%mzn-stat: objective=546
%%%mzn-stat: nodes=751
%%%mzn-stat: restarts=0
%%%mzn-stat: peakDepth=137
%%%mzn-stat: solveTime=0.013212557
%%%mzn-stat: variables=302
%%%mzn-stat: propagators=390
%%%mzn-stat: failures=212
%%%mzn-stat: propagations=27522
%%%mzn-stat: nogoods=212
%%%mzn-stat: numAtomicConstraintsPropagated=0
%%%mzn-stat: circuitNumber191PropagationsThatFoundConflict=95
%%%mzn-stat: circuitNumber191TotalFixedEdgesAtConflict=1690
%%%mzn-stat: circuitNumber191NumberOfConflicts=95
%%%mzn-stat: circuitNumber191PropagationsThatPruned=72
%%%mzn-stat: circuitNumber191PropagationsTotal=404
%%%mzn-stat: AverageConflictSize=8.627358490566039
%%%mzn-stat: NumUnitNogoodsLearned=0
%%%mzn-stat: AverageLearnedNogoodLength=12.325471698113208
%%%mzn-stat: AverageBacktrackAmount=0
%%%mzn-stat: AverageLbd=9.60377358490566
%%%mzn-stat: 2AutonomousSearchNumBackupCalled=460
%%%mzn-stat: 2AutonomousSearchNumPredicatesRemoved=0
%%%mzn-stat: 2AutonomousSearchNumCalls=464
%%%mzn-stat: 2AutonomousSearchNumPredicatesAdded=852
%%%mzn-stat: 2AutonomousSearchAverageSizeOfHeap=3.4030172413793105
%%%mzn-stat: 2AutonomousSearchNumAssignedPredicatesEncountered=1579
%%%mzn-stat-end
maxleg = 546;
succ = array1d(1..20,[2, 6, 7, 5, 9, 10, 1, 12, 18, 20, 4, 13, 3, 8, 17, 14, 19, 16, 11, 15]);
% time elapsed: 16.37 s
----------
%%%mzn-stat: initTime=0.004548056
%%%mzn-stat: objective=513
%%%mzn-stat: nodes=862
%%%mzn-stat: restarts=0
%%%mzn-stat: peakDepth=137
%%%mzn-stat: solveTime=0.013455284
%%%mzn-stat: variables=302
%%%mzn-stat: propagators=390
%%%mzn-stat: failures=212
%%%mzn-stat: propagations=28258
%%%mzn-stat: nogoods=212
%%%mzn-stat: numAtomicConstraintsPropagated=0
%%%mzn-stat: circuitNumber191PropagationsThatFoundConflict=95
%%%mzn-stat: circuitNumber191TotalFixedEdgesAtConflict=1690
%%%mzn-stat: circuitNumber191NumberOfConflicts=95
%%%mzn-stat: circuitNumber191PropagationsThatPruned=76
%%%mzn-stat: circuitNumber191PropagationsTotal=418
%%%mzn-stat: AverageConflictSize=8.627358490566039
%%%mzn-stat: NumUnitNogoodsLearned=0
%%%mzn-stat: AverageLearnedNogoodLength=12.325471698113208
%%%mzn-stat: AverageBacktrackAmount=0
%%%mzn-stat: AverageLbd=9.60377358490566
%%%mzn-stat: 2AutonomousSearchNumBackupCalled=560
%%%mzn-stat: 2AutonomousSearchNumPredicatesRemoved=0
%%%mzn-stat: 2AutonomousSearchNumCalls=565
%%%mzn-stat: 2AutonomousSearchNumPredicatesAdded=852
%%%mzn-stat: 2AutonomousSearchAverageSizeOfHeap=3.5398230088495577
%%%mzn-stat: 2AutonomousSearchNumAssignedPredicatesEncountered=2000
%%%mzn-stat-end
maxleg = 513;
succ = array1d(1..20,[2, 6, 7, 5, 9, 10, 1, 12, 18, 20, 4, 14, 3, 16, 17, 13, 19, 8, 11, 15]);
% time elapsed: 16.48 s
----------
==========
% time elapsed: 21.12 s
%%%mzn-stat: initTime=0.004548056
%%%mzn-stat: objective=513
%%%mzn-stat: nodes=31406
%%%mzn-stat: restarts=0
%%%mzn-stat: peakDepth=137
%%%mzn-stat: solveTime=4.662299498
%%%mzn-stat: variables=302
%%%mzn-stat: propagators=390
%%%mzn-stat: failures=29545
%%%mzn-stat: propagations=3406643
%%%mzn-stat: nogoods=29545
%%%mzn-stat: numAtomicConstraintsPropagated=0
%%%mzn-stat: circuitNumber191PropagationsThatFoundConflict=2307
%%%mzn-stat: circuitNumber191TotalFixedEdgesAtConflict=28757
%%%mzn-stat: circuitNumber191NumberOfConflicts=2307
%%%mzn-stat: circuitNumber191PropagationsThatPruned=8720
%%%mzn-stat: circuitNumber191PropagationsTotal=39044
%%%mzn-stat: AverageConflictSize=9.884752073108817
%%%mzn-stat: NumUnitNogoodsLearned=1
%%%mzn-stat: AverageLearnedNogoodLength=20.652597732272802
%%%mzn-stat: AverageBacktrackAmount=0
%%%mzn-stat: AverageLbd=6.763648671518023
%%%mzn-stat: 2AutonomousSearchNumBackupCalled=560
%%%mzn-stat: 2AutonomousSearchNumPredicatesRemoved=0
%%%mzn-stat: 2AutonomousSearchNumCalls=565
%%%mzn-stat: 2AutonomousSearchNumPredicatesAdded=1665
%%%mzn-stat: 2AutonomousSearchAverageSizeOfHeap=3.5398230088495577
%%%mzn-stat: 2AutonomousSearchNumAssignedPredicatesEncountered=2000
%%%mzn-stat-end
